/* Objective function */
min: 3y_A + 1y_B + 5y_D + 1y_H + 4y_I + 6y_K + 2y_M + 3y_N + 8y_Ne + 1y_O + 3y_R + 2y_S + 8y_U + 15y_W + 2y_Y + 5y_Z;

/* Variable bounds */

x_1=0;
x_28<=98;
x_2>=x_1+10-y_A;
x_3>=x_2+15-y_B;
x_5>=x_2+13-y_D;
x_9>=x_6+15-y_H;
x_11>=x_6+13-y_I;
x_13>=x_11+13-y_K;
x_15>=x_14+7-y_M;
x_15>=x_10+20-y_N;
x_16>=x_15+9-y_Ne;
x_17>=x_16+6-y_O;
x_21>=x_20+6-y_R;
x_20>=x_15+15-y_S;
x_24>=x_23+10-y_U;
x_24>=x_6+60-y_W;
x_28>=x_25+8-y_Y;
x_27>=x_24+10-y_Z;
x_4>=x_2+10;
x_6>=x_4+5;
x_7>=x_6+10;
x_8>=x_6+10;
x_11>=x_7+4;
x_12>=x_11+10;
x_18>=x_16+5;
x_20>=x_19+4;
x_22>=x_20+5;
x_25>=x_20+4;
x_26>=x_24+5;
x_4>=x_3;
x_4>=x_5;
x_10>=x_8;
x_10>=x_9;
x_11>=x_10;
x_14>=x_12;
x_14>=x_13;
x_19>=x_17;
x_19>=x_18;
x_23>=x_21;
x_23>=x_22;
x_25>=x_24;
x_28>=x_26;
x_28>=x_27;
y_A<=2;
y_B<=3;
y_D<=1;
y_H<=5;
y_I<=2;
y_K<=3;
y_M<=2;
y_N<=10;
y_Ne<=1;
y_O<=2;
y_R<=1;
y_S<=4;
y_U<=2;
y_W<=5;
y_Y<=3;
y_Z<=2;

int y_A,y_B,y_D,y_H,y_I,y_K,y_M,y_N,y_Ne,y_O,y_R,y_S,y_U,y_W,y_Y,y_Z;